benchmarks_vrp/CMT11/fixed_c/CMT11_2.vrp
NAME: CMT11_2
TYPE: CVRP
COMMENT: 1042.11 - Cluster Nr.2
DIMENSION: 16
CAPACITY: 200
EDGE_WEIGHT_TYPE: EUC_2D
NODE_COORD_TYPE: TWOD_COORDS
NODE_COORD_SECTION: 
9 94 48
14 99 46
2 96 42
6 89 46
15 99 50
4 86 44
1 94 44
11 92 52
7 86 46
10 89 52
13 85 55
12 92 42
8 10 45
16 86 41
5 94 42
3 89 43
DEPOT_SECTION: 
8
-1
DEMAND_SECTION: 
16 18
13 17
6 14
8 0
14 4
11 9
1 7
10 16
15 21
12 10
4 14
7 12
5 11
2 5
3 20
9 13
EOF
