benchmarks_vrp/CMT11/fixed_c/CMT11_2.tour
NAME: CMT11_2 solution
TYPE: TOUR
TOUR_SECTION:
8 13 10 11 9 15 14 2 1 5 12 3 6 7 4 16 -1
-1
EOF